\ENCODING=ISO-8859-1
\Problem name: IloCplex

Minimize
 obj: z
Subject To
 c1:  - x_0 - x_1 - x_2 - x_3 - x_4 - x_5 - x_6 - x_7 - x_8 - x_9 - x_10 - x_11
      - x_12 - x_13 - x_14 - x_15 - x_16 - x_17 - x_18 - x_19 - x_20 - x_21
      - x_22 - x_23 - x_24 - x_25 - x_26 - x_27 - x_28 - x_29 - x_30 - x_31
      - x_32 - x_33 - x_34 - x_35 - x_36 - x_37 - x_38 - x_39 - x_40 - x_41
      - x_42 - x_43 - x_44 - x_45 - x_46 - x_47 - x_48 - x_49 - x_50 - x_51
      - x_52 - x_53 - x_54 - x_55 - x_56 - x_57 - x_58 - x_59 - x_60 - x_61
      - x_62 - x_63 - x_64 - x_65 - x_66 - x_67 - x_68 - x_69 - x_70 - x_71
      - x_72 - x_73 - x_74 - x_75 - x_76 - x_77 - x_78 - x_79 - x_80 - x_81
      - x_82 - x_83 - x_84 - x_85 - x_86 - x_87 - x_88 - x_89 - x_90 - x_91
      - x_92 - x_93 - x_94 - x_95 - x_96 - x_97 - x_98 - x_99 - x_100 - x_101
      - x_102 - x_103 - x_104 - x_105 - x_106 - x_107 - x_108 - x_109 - x_110
      - x_111 - x_112 - x_113 - x_114 - x_115 - x_116 - x_117 - x_118 - x_119
      - x_120 - x_121 - x_122 - x_123 - x_124 - x_125 - x_126 - x_127 - x_128
      - x_129 - x_130 - x_131 - x_132 - x_133 - x_134 - x_135 - x_136 - x_137
      - x_138 - x_139 - x_140 - x_141 - x_142 - x_143 - x_144 - x_145 - x_146
      - x_147 - x_148 - x_149 - x_150 - x_151 - x_152 - x_153 - x_154 - x_155
      - x_156 - x_157 - x_158 - x_159 - x_160 - x_161 - x_162 - x_163 - x_164
      - x_165 - x_166 - x_167 - x_168 - x_169 - x_170 - x_171 - x_172 - x_173
      - x_174 - x_175 - x_176 - x_177 - x_178 - x_179 - x_180 - x_181 - x_182
      - x_183 - x_184 - x_185 - x_186 - x_187 - x_188 - x_189 - x_190 - x_191
      - x_192 - x_193 - x_194 - x_195 - x_196 - x_197 - x_198 - x_199 - x_200
      - x_201 - x_202 - x_203 - x_204 - x_205 - x_206 - x_207 - x_208 - x_209
      - x_210 >= -3
 c2:  x_0  = 1
 c3:  x_1 + x_3 + x_7 + x_9 + x_11 + x_13 + x_15 + x_19 + x_21 + x_23 + x_28
      + x_30 + x_32 + x_34 + x_37 + x_40 + x_42 + x_44 + x_46 + x_49 + x_52
      + x_54 + x_56 + x_58 + x_60 + x_62 + x_64 + x_67 + x_70 + x_73 + x_76
      + x_78 + x_80 + x_82 + x_84 + x_86 + x_88 + x_91 + x_94 + x_96 + x_98
      + x_100 + x_102 + x_104 + x_106 + x_109 + x_112 + x_115 + x_118 + x_120
      + x_122 + x_124 + x_126 + x_128 + x_130 + x_132 + x_134 + x_136 + x_138
      + x_140 + x_142 + x_144 + x_146 + x_149 + x_152 + x_155 + x_158 + x_160
      + x_162 + x_164 + x_166 + x_168 + x_170 + x_172 + x_174 + x_176 + x_178
      + x_180 + x_182 + x_184 + x_186 + x_189 + x_192 + x_195 + x_198 + x_200
      + x_202 + x_204 + x_206 + x_208 + x_210  = 1
 c4:  x_2 + x_3 + x_6 + x_7 + x_10 + x_11 + x_14 + x_15 + x_18 + x_19 + x_22
      + x_23 + x_27 + x_28 + x_29 + x_30 + x_31 + x_32 + x_33 + x_34 + x_36
      + x_37 + x_39 + x_40 + x_41 + x_42 + x_45 + x_46 + x_48 + x_49 + x_51
      + x_52 + x_53 + x_54 + x_55 + x_56 + x_57 + x_58 + x_59 + x_60 + x_61
      + x_62 + x_63 + x_64 + x_66 + x_67 + x_69 + x_70 + x_72 + x_73 + x_75
      + x_76 + x_77 + x_78 + x_79 + x_80 + x_83 + x_84 + x_87 + x_88 + x_90
      + x_91 + x_93 + x_94 + x_95 + x_96 + x_97 + x_98 + x_99 + x_100 + x_101
      + x_102 + x_103 + x_104 + x_105 + x_106 + x_108 + x_109 + x_111 + x_112
      + x_114 + x_115 + x_117 + x_118 + x_119 + x_120 + x_121 + x_122 + x_125
      + x_126 + x_129 + x_130 + x_131 + x_132 + x_133 + x_134 + x_135 + x_136
      + x_137 + x_138 + x_139 + x_140 + x_141 + x_142 + x_143 + x_144 + x_145
      + x_146 + x_148 + x_149 + x_151 + x_152 + x_154 + x_155 + x_157 + x_158
      + x_159 + x_160 + x_161 + x_162 + x_165 + x_166 + x_169 + x_170 + x_171
      + x_172 + x_173 + x_174 + x_175 + x_176 + x_177 + x_178 + x_179 + x_180
      + x_181 + x_182 + x_183 + x_184 + x_185 + x_186 + x_188 + x_189 + x_191
      + x_192 + x_194 + x_195 + x_197 + x_198 + x_199 + x_200 + x_201 + x_202
      + x_205 + x_206 + x_209 + x_210  = 1
 c5:  x_4 + x_25 + x_50 + x_51 + x_52 + x_55 + x_56 + x_59 + x_60 + x_63 + x_64
      + x_68 + x_69 + x_70 + x_74 + x_75 + x_76 + x_79 + x_80 + x_85 + x_86
      + x_87 + x_88 + x_92 + x_93 + x_94 + x_97 + x_98 + x_101 + x_102 + x_105
      + x_106 + x_110 + x_111 + x_112 + x_116 + x_117 + x_118 + x_121 + x_122
      + x_127 + x_128 + x_129 + x_130 + x_133 + x_134 + x_137 + x_138 + x_141
      + x_142 + x_145 + x_146 + x_150 + x_151 + x_152 + x_156 + x_157 + x_158
      + x_161 + x_162 + x_167 + x_168 + x_169 + x_170 + x_173 + x_174 + x_177
      + x_178 + x_181 + x_182 + x_185 + x_186 + x_190 + x_191 + x_192 + x_196
      + x_197 + x_198 + x_201 + x_202 + x_207 + x_208 + x_209 + x_210  = 1
 c6:  x_5 + x_6 + x_7 + x_12 + x_13 + x_14 + x_15 + x_17 + x_18 + x_19 + x_20
      + x_21 + x_22 + x_23 + x_29 + x_30 + x_33 + x_34 + x_38 + x_39 + x_40
      + x_43 + x_44 + x_45 + x_46 + x_53 + x_54 + x_55 + x_56 + x_61 + x_62
      + x_63 + x_64 + x_71 + x_72 + x_73 + x_74 + x_75 + x_76 + x_81 + x_82
      + x_83 + x_84 + x_85 + x_86 + x_87 + x_88 + x_95 + x_96 + x_97 + x_98
      + x_103 + x_104 + x_105 + x_106 + x_113 + x_114 + x_115 + x_116 + x_117
      + x_118 + x_123 + x_124 + x_125 + x_126 + x_127 + x_128 + x_129 + x_130
      + x_135 + x_136 + x_137 + x_138 + x_143 + x_144 + x_145 + x_146 + x_153
      + x_154 + x_155 + x_156 + x_157 + x_158 + x_163 + x_164 + x_165 + x_166
      + x_167 + x_168 + x_169 + x_170 + x_175 + x_176 + x_177 + x_178 + x_183
      + x_184 + x_185 + x_186 + x_193 + x_194 + x_195 + x_196 + x_197 + x_198
      + x_203 + x_204 + x_205 + x_206 + x_207 + x_208 + x_209 + x_210  = 1
 c7:  x_8 + x_9 + x_10 + x_11 + x_12 + x_13 + x_14 + x_15 + x_20 + x_21 + x_22
      + x_23 + x_31 + x_32 + x_33 + x_34 + x_41 + x_42 + x_43 + x_44 + x_45
      + x_46 + x_57 + x_58 + x_59 + x_60 + x_61 + x_62 + x_63 + x_64 + x_77
      + x_78 + x_79 + x_80 + x_81 + x_82 + x_83 + x_84 + x_85 + x_86 + x_87
      + x_88 + x_99 + x_100 + x_101 + x_102 + x_103 + x_104 + x_105 + x_106
      + x_119 + x_120 + x_121 + x_122 + x_123 + x_124 + x_125 + x_126 + x_127
      + x_128 + x_129 + x_130 + x_139 + x_140 + x_141 + x_142 + x_143 + x_144
      + x_145 + x_146 + x_159 + x_160 + x_161 + x_162 + x_163 + x_164 + x_165
      + x_166 + x_167 + x_168 + x_169 + x_170 + x_179 + x_180 + x_181 + x_182
      + x_183 + x_184 + x_185 + x_186 + x_199 + x_200 + x_201 + x_202 + x_203
      + x_204 + x_205 + x_206 + x_207 + x_208 + x_209 + x_210  = 1
 c8:  x_16 + x_17 + x_18 + x_19 + x_20 + x_21 + x_22 + x_23 + x_35 + x_36
      + x_37 + x_38 + x_39 + x_40 + x_41 + x_42 + x_43 + x_44 + x_45 + x_46
      + x_65 + x_66 + x_67 + x_68 + x_69 + x_70 + x_71 + x_72 + x_73 + x_74
      + x_75 + x_76 + x_77 + x_78 + x_79 + x_80 + x_81 + x_82 + x_83 + x_84
      + x_85 + x_86 + x_87 + x_88 + x_107 + x_108 + x_109 + x_110 + x_111
      + x_112 + x_113 + x_114 + x_115 + x_116 + x_117 + x_118 + x_119 + x_120
      + x_121 + x_122 + x_123 + x_124 + x_125 + x_126 + x_127 + x_128 + x_129
      + x_130 + x_147 + x_148 + x_149 + x_150 + x_151 + x_152 + x_153 + x_154
      + x_155 + x_156 + x_157 + x_158 + x_159 + x_160 + x_161 + x_162 + x_163
      + x_164 + x_165 + x_166 + x_167 + x_168 + x_169 + x_170 + x_187 + x_188
      + x_189 + x_190 + x_191 + x_192 + x_193 + x_194 + x_195 + x_196 + x_197
      + x_198 + x_199 + x_200 + x_201 + x_202 + x_203 + x_204 + x_205 + x_206
      + x_207 + x_208 + x_209 + x_210  = 1
 c9:  x_24 + x_25 + x_89 + x_90 + x_91 + x_92 + x_93 + x_94 + x_95 + x_96
      + x_97 + x_98 + x_99 + x_100 + x_101 + x_102 + x_103 + x_104 + x_105
      + x_106 + x_107 + x_108 + x_109 + x_110 + x_111 + x_112 + x_113 + x_114
      + x_115 + x_116 + x_117 + x_118 + x_119 + x_120 + x_121 + x_122 + x_123
      + x_124 + x_125 + x_126 + x_127 + x_128 + x_129 + x_130 + x_171 + x_172
      + x_173 + x_174 + x_175 + x_176 + x_177 + x_178 + x_179 + x_180 + x_181
      + x_182 + x_183 + x_184 + x_185 + x_186 + x_187 + x_188 + x_189 + x_190
      + x_191 + x_192 + x_193 + x_194 + x_195 + x_196 + x_197 + x_198 + x_199
      + x_200 + x_201 + x_202 + x_203 + x_204 + x_205 + x_206 + x_207 + x_208
      + x_209 + x_210  = 1
 c10: x_26 + x_27 + x_28 + x_29 + x_30 + x_31 + x_32 + x_33 + x_34 + x_35
      + x_36 + x_37 + x_38 + x_39 + x_40 + x_41 + x_42 + x_43 + x_44 + x_45
      + x_46 + x_131 + x_132 + x_133 + x_134 + x_135 + x_136 + x_137 + x_138
      + x_139 + x_140 + x_141 + x_142 + x_143 + x_144 + x_145 + x_146 + x_147
      + x_148 + x_149 + x_150 + x_151 + x_152 + x_153 + x_154 + x_155 + x_156
      + x_157 + x_158 + x_159 + x_160 + x_161 + x_162 + x_163 + x_164 + x_165
      + x_166 + x_167 + x_168 + x_169 + x_170 + x_171 + x_172 + x_173 + x_174
      + x_175 + x_176 + x_177 + x_178 + x_179 + x_180 + x_181 + x_182 + x_183
      + x_184 + x_185 + x_186 + x_187 + x_188 + x_189 + x_190 + x_191 + x_192
      + x_193 + x_194 + x_195 + x_196 + x_197 + x_198 + x_199 + x_200 + x_201
      + x_202 + x_203 + x_204 + x_205 + x_206 + x_207 + x_208 + x_209 + x_210
       = 1
 c11: x_47 + x_48 + x_49 + x_50 + x_51 + x_52 + x_53 + x_54 + x_55 + x_56
      + x_57 + x_58 + x_59 + x_60 + x_61 + x_62 + x_63 + x_64 + x_65 + x_66
      + x_67 + x_68 + x_69 + x_70 + x_71 + x_72 + x_73 + x_74 + x_75 + x_76
      + x_77 + x_78 + x_79 + x_80 + x_81 + x_82 + x_83 + x_84 + x_85 + x_86
      + x_87 + x_88 + x_89 + x_90 + x_91 + x_92 + x_93 + x_94 + x_95 + x_96
      + x_97 + x_98 + x_99 + x_100 + x_101 + x_102 + x_103 + x_104 + x_105
      + x_106 + x_107 + x_108 + x_109 + x_110 + x_111 + x_112 + x_113 + x_114
      + x_115 + x_116 + x_117 + x_118 + x_119 + x_120 + x_121 + x_122 + x_123
      + x_124 + x_125 + x_126 + x_127 + x_128 + x_129 + x_130 + x_131 + x_132
      + x_133 + x_134 + x_135 + x_136 + x_137 + x_138 + x_139 + x_140 + x_141
      + x_142 + x_143 + x_144 + x_145 + x_146 + x_147 + x_148 + x_149 + x_150
      + x_151 + x_152 + x_153 + x_154 + x_155 + x_156 + x_157 + x_158 + x_159
      + x_160 + x_161 + x_162 + x_163 + x_164 + x_165 + x_166 + x_167 + x_168
      + x_169 + x_170 + x_171 + x_172 + x_173 + x_174 + x_175 + x_176 + x_177
      + x_178 + x_179 + x_180 + x_181 + x_182 + x_183 + x_184 + x_185 + x_186
      + x_187 + x_188 + x_189 + x_190 + x_191 + x_192 + x_193 + x_194 + x_195
      + x_196 + x_197 + x_198 + x_199 + x_200 + x_201 + x_202 + x_203 + x_204
      + x_205 + x_206 + x_207 + x_208 + x_209 + x_210  = 1
 c12: z >= 0
 c13: z - 29 x_3 - 43 x_7 - 37 x_9 - 66 x_11 - 69 x_13 - 75 x_15 - 111 x_19
      - 137 x_21 - 143 x_23 - 69 x_28 - 83 x_30 - 106 x_32 - 115 x_34
      - 163 x_37 - 151 x_40 - 200 x_42 - 231 x_44 - 183 x_46 - 70 x_49
      - 123 x_52 - 84 x_54 - 137 x_56 - 107 x_58 - 160 x_60 - 116 x_62
      - 169 x_64 - 133 x_67 - 186 x_70 - 147 x_73 - 200 x_76 - 170 x_78
      - 223 x_80 - 200 x_82 - 179 x_84 - 253 x_86 - 232 x_88 - 78 x_91
      - 131 x_94 - 92 x_96 - 145 x_98 - 115 x_100 - 168 x_102 - 124 x_104
      - 177 x_106 - 141 x_109 - 194 x_112 - 155 x_115 - 208 x_118 - 178 x_120
      - 231 x_122 - 208 x_124 - 187 x_126 - 261 x_128 - 240 x_130 - 110 x_132
      - 163 x_134 - 124 x_136 - 177 x_138 - 147 x_140 - 200 x_142 - 156 x_144
      - 209 x_146 - 173 x_149 - 226 x_152 - 187 x_155 - 240 x_158 - 210 x_160
      - 263 x_162 - 294 x_164 - 219 x_166 - 347 x_168 - 272 x_170 - 118 x_172
      - 171 x_174 - 132 x_176 - 185 x_178 - 155 x_180 - 208 x_182 - 164 x_184
      - 217 x_186 - 181 x_189 - 234 x_192 - 195 x_195 - 248 x_198 - 218 x_200
      - 271 x_202 - 302 x_204 - 227 x_206 - 355 x_208 - 280 x_210 >= 0
 c14: z - 14 x_6 - 52 x_10 - 46 x_14 - 82 x_18 - 114 x_22 - 40 x_27 - 54 x_29
      - 92 x_31 - 86 x_33 - 134 x_36 - 122 x_39 - 186 x_41 - 154 x_45 - 41 x_48
      - 94 x_51 - 55 x_53 - 108 x_55 - 93 x_57 - 146 x_59 - 87 x_61 - 140 x_63
      - 104 x_66 - 157 x_69 - 118 x_72 - 171 x_75 - 156 x_77 - 209 x_79
      - 150 x_83 - 203 x_87 - 49 x_90 - 102 x_93 - 63 x_95 - 116 x_97
      - 101 x_99 - 154 x_101 - 95 x_103 - 148 x_105 - 112 x_108 - 165 x_111
      - 126 x_114 - 179 x_117 - 164 x_119 - 217 x_121 - 158 x_125 - 211 x_129
      - 81 x_131 - 134 x_133 - 95 x_135 - 148 x_137 - 133 x_139 - 186 x_141
      - 127 x_143 - 180 x_145 - 144 x_148 - 197 x_151 - 158 x_154 - 211 x_157
      - 196 x_159 - 249 x_161 - 190 x_165 - 243 x_169 - 89 x_171 - 142 x_173
      - 103 x_175 - 156 x_177 - 141 x_179 - 194 x_181 - 135 x_183 - 188 x_185
      - 152 x_188 - 205 x_191 - 166 x_194 - 219 x_197 - 204 x_199 - 257 x_201
      - 198 x_205 - 251 x_209 >= 0
 c15: z - 55 x_25 - 53 x_50 - 116 x_68 - 184 x_74 - 216 x_85 - 61 x_92
      - 124 x_110 - 192 x_116 - 224 x_127 - 210 x_150 - 278 x_156 - 310 x_167
      - 218 x_190 - 286 x_196 - 318 x_207 >= 0
 c16: z - 32 x_12 - 68 x_17 - 100 x_20 - 162 x_38 - 194 x_43 - 131 x_71
      - 163 x_81 - 139 x_113 - 171 x_123 - 225 x_153 - 257 x_163 - 233 x_193
      - 265 x_203 >= 0
 c17: z >= 0
 c18: z - 94 x_35 - 63 x_65 - 71 x_107 - 157 x_147 - 165 x_187 >= 0
 c19: z - 8 x_89 >= 0
 c20: z >= 0
 c21: z >= 0
End
